## Parameters initialization

units 		real
atom_style 	full

pair_style	table spline 15000
bond_style      none
angle_style     none
dihedral_style  none
improper_style  none
kspace_style    none
#kspace_style	ewald 0.0001

boundary 	p p p
dimension 	3
newton 		on

read_data	cgwater.data

pair_coeff 1 1 lammps_nb_SOLSOL.dat LJLJ 14.0


## Parameters initialization
velocity 	all create 300 1 dist gaussian

## Neighbor list settings
neigh_modify 	delay 0 every 1 check yes one 10000
neighbor 	14.0 bin

## Integrator
timestep 	1.0
run_style 	verlet

## Thermodynamics output
thermo 		1000
thermo_style    custom step temp pe etotal press vol

variable STEP equal step
variable TEMP equal temp
variable VOL equal vol/1000.0
variable PRESS equal press*1.01325
variable PXX equal pxx*1.01325
variable PYY equal pyy*1.01325
variable PZZ equal pzz*1.01325
variable PXY equal pxy*1.01325
variable PXZ equal pxz*1.01325
variable PYZ equal pyz*1.01325
variable KE equal ke*4.184
variable KE equal ke*4.184
variable PE equal pe*4.184
variable UVDW equal evdwl*4.184
variable UCOUL equal ecoul*4.184
variable UBOND equal ebond*4.184
variable UANGLE equal eangle*4.184
variable ENTH equal enthalpy*4.184

## Set various fixes            i      f    ??  wgnbaro  pi   pf(atm) ???  keyword [ FILL IN ] [n sites] # coef? p-psi comp-psi (You fill these in <>)
fix 		1 all bocs temp 300.0 300.0 100.0 cgiso 0.986 0.986 1000.0 analytic 150242 5000 2 UNO DOS
fix             print_temp all print 1000 "${STEP} ${TEMP}" file temp.dat screen no
fix             print_vol all print 1000 "${STEP} ${VOL}" file vol.dat screen no
fix             print_press all print 1000 "${STEP} ${PRESS}" file press.dat screen no
fix             print_ke all print 1000 "${STEP} ${KE}" file kinetic_E.dat screen no
fix             print_pe all print 1000 "${STEP} ${PE}" file potential_E.dat screen no
fix		print_ve all print 1000 "${STEP} ${UVDW}" file vdw_E.dat screen no
fix		print_ce all print 1000 "${STEP} ${UCOUL}" file coul_E.dat screen no
fix		print_be all print 1000 "${STEP} ${UBOND}" file bond_E.dat screen no
fix		print_ae all print 1000 "${STEP} ${UANGLE}" file angle_E.dat screen no
fix		print_Ee all print 1000 "${STEP} ${ENTH}" file enthalpy.dat screen no

fix             print_press_tens all print 1000 "${STEP} ${PXX} ${PYY} ${PZZ} ${PXY} ${PXZ} ${PYZ}" file press_tens.dat screen no

# This makes lammps print the CG-P pressure rather than the raw pressure
thermo_modify press 1_press

## Output options
dump            1 all xtc 1000 outfile.xtc

# Write restart files to continue simulations
restart 10000 state1.restart state2.restart

## Run
run 7000000
